c *********************************
c * Circuit generated by BenCGen
c *
c * Magnitude_48
c *
c * Ports with 1 gate(s): 50
c * Ports with 2 gate(s): 99
c * Ports with 3 gate(s): 1
c * Ports with 4 gate(s): 1
c * Ports with 5 gate(s): 1
c * Ports with 6 gate(s): 1
c * Ports with 7 gate(s): 1
c * Ports with 8 gate(s): 1
c * Ports with 9 gate(s): 1
c * Ports with 10 gate(s): 1
c * Ports with 11 gate(s): 1
c * Ports with 12 gate(s): 1
c * Ports with 13 gate(s): 1
c * Ports with 14 gate(s): 1
c * Ports with 15 gate(s): 1
c * Ports with 16 gate(s): 1
c * Ports with 17 gate(s): 1
c * Ports with 18 gate(s): 1
c * Ports with 19 gate(s): 1
c * Ports with 20 gate(s): 1
c * Ports with 21 gate(s): 1
c * Ports with 22 gate(s): 1
c * Ports with 23 gate(s): 1
c * Ports with 24 gate(s): 1
c * Ports with 25 gate(s): 1
c * Ports with 26 gate(s): 1
c * Ports with 27 gate(s): 1
c * Ports with 28 gate(s): 1
c * Ports with 29 gate(s): 1
c * Ports with 30 gate(s): 1
c * Ports with 31 gate(s): 1
c * Ports with 32 gate(s): 1
c * Ports with 33 gate(s): 1
c * Ports with 34 gate(s): 1
c * Ports with 35 gate(s): 1
c * Ports with 36 gate(s): 1
c * Ports with 37 gate(s): 1
c * Ports with 38 gate(s): 1
c * Ports with 39 gate(s): 1
c * Ports with 40 gate(s): 1
c * Ports with 41 gate(s): 1
c * Ports with 42 gate(s): 1
c * Ports with 43 gate(s): 1
c * Ports with 44 gate(s): 1
c * Ports with 45 gate(s): 1
c * Ports with 46 gate(s): 1
c * Ports with 47 gate(s): 1
c * Ports with 48 gate(s): 3
c * Total gates: 197
c *********************************
p cnf 293 1762
1 101 0
-1 -101 0
1 -100 0
101 -100 0
-1 -101 100 0
49 102 0
-49 -102 0
50 103 0
-50 -103 0
51 104 0
-51 -104 0
52 105 0
-52 -105 0
53 106 0
-53 -106 0
54 107 0
-54 -107 0
55 108 0
-55 -108 0
56 109 0
-56 -109 0
57 110 0
-57 -110 0
58 111 0
-58 -111 0
59 112 0
-59 -112 0
60 113 0
-60 -113 0
61 114 0
-61 -114 0
62 115 0
-62 -115 0
63 116 0
-63 -116 0
64 117 0
-64 -117 0
65 118 0
-65 -118 0
66 119 0
-66 -119 0
67 120 0
-67 -120 0
68 121 0
-68 -121 0
69 122 0
-69 -122 0
70 123 0
-70 -123 0
71 124 0
-71 -124 0
72 125 0
-72 -125 0
73 126 0
-73 -126 0
74 127 0
-74 -127 0
75 128 0
-75 -128 0
76 129 0
-76 -129 0
77 130 0
-77 -130 0
78 131 0
-78 -131 0
79 132 0
-79 -132 0
80 133 0
-80 -133 0
81 134 0
-81 -134 0
82 135 0
-82 -135 0
83 136 0
-83 -136 0
84 137 0
-84 -137 0
85 138 0
-85 -138 0
86 139 0
-86 -139 0
87 140 0
-87 -140 0
88 141 0
-88 -141 0
89 142 0
-89 -142 0
90 143 0
-90 -143 0
91 144 0
-91 -144 0
92 145 0
-92 -145 0
93 146 0
-93 -146 0
94 147 0
-94 -147 0
95 148 0
-95 -148 0
96 149 0
-96 -149 0
1 49 198 0
-1 49 -198 0
1 -49 -198 0
-1 -49 198 0
1 -150 0
102 -150 0
-1 -102 150 0
2 50 199 0
-2 50 -199 0
2 -50 -199 0
-2 -50 199 0
2 -151 0
103 -151 0
-2 -103 151 0
3 51 200 0
-3 51 -200 0
3 -51 -200 0
-3 -51 200 0
3 -152 0
104 -152 0
-3 -104 152 0
4 52 201 0
-4 52 -201 0
4 -52 -201 0
-4 -52 201 0
4 -153 0
105 -153 0
-4 -105 153 0
5 53 202 0
-5 53 -202 0
5 -53 -202 0
-5 -53 202 0
5 -154 0
106 -154 0
-5 -106 154 0
6 54 203 0
-6 54 -203 0
6 -54 -203 0
-6 -54 203 0
6 -155 0
107 -155 0
-6 -107 155 0
7 55 204 0
-7 55 -204 0
7 -55 -204 0
-7 -55 204 0
7 -156 0
108 -156 0
-7 -108 156 0
8 56 205 0
-8 56 -205 0
8 -56 -205 0
-8 -56 205 0
8 -157 0
109 -157 0
-8 -109 157 0
9 57 206 0
-9 57 -206 0
9 -57 -206 0
-9 -57 206 0
9 -158 0
110 -158 0
-9 -110 158 0
10 58 207 0
-10 58 -207 0
10 -58 -207 0
-10 -58 207 0
10 -159 0
111 -159 0
-10 -111 159 0
11 59 208 0
-11 59 -208 0
11 -59 -208 0
-11 -59 208 0
11 -160 0
112 -160 0
-11 -112 160 0
12 60 209 0
-12 60 -209 0
12 -60 -209 0
-12 -60 209 0
12 -161 0
113 -161 0
-12 -113 161 0
13 61 210 0
-13 61 -210 0
13 -61 -210 0
-13 -61 210 0
13 -162 0
114 -162 0
-13 -114 162 0
14 62 211 0
-14 62 -211 0
14 -62 -211 0
-14 -62 211 0
14 -163 0
115 -163 0
-14 -115 163 0
15 63 212 0
-15 63 -212 0
15 -63 -212 0
-15 -63 212 0
15 -164 0
116 -164 0
-15 -116 164 0
16 64 213 0
-16 64 -213 0
16 -64 -213 0
-16 -64 213 0
16 -165 0
117 -165 0
-16 -117 165 0
17 65 214 0
-17 65 -214 0
17 -65 -214 0
-17 -65 214 0
17 -166 0
118 -166 0
-17 -118 166 0
18 66 215 0
-18 66 -215 0
18 -66 -215 0
-18 -66 215 0
18 -167 0
119 -167 0
-18 -119 167 0
19 67 216 0
-19 67 -216 0
19 -67 -216 0
-19 -67 216 0
19 -168 0
120 -168 0
-19 -120 168 0
20 68 217 0
-20 68 -217 0
20 -68 -217 0
-20 -68 217 0
20 -169 0
121 -169 0
-20 -121 169 0
21 69 218 0
-21 69 -218 0
21 -69 -218 0
-21 -69 218 0
21 -170 0
122 -170 0
-21 -122 170 0
22 70 219 0
-22 70 -219 0
22 -70 -219 0
-22 -70 219 0
22 -171 0
123 -171 0
-22 -123 171 0
23 71 220 0
-23 71 -220 0
23 -71 -220 0
-23 -71 220 0
23 -172 0
124 -172 0
-23 -124 172 0
24 72 221 0
-24 72 -221 0
24 -72 -221 0
-24 -72 221 0
24 -173 0
125 -173 0
-24 -125 173 0
25 73 222 0
-25 73 -222 0
25 -73 -222 0
-25 -73 222 0
25 -174 0
126 -174 0
-25 -126 174 0
26 74 223 0
-26 74 -223 0
26 -74 -223 0
-26 -74 223 0
26 -175 0
127 -175 0
-26 -127 175 0
27 75 224 0
-27 75 -224 0
27 -75 -224 0
-27 -75 224 0
27 -176 0
128 -176 0
-27 -128 176 0
28 76 225 0
-28 76 -225 0
28 -76 -225 0
-28 -76 225 0
28 -177 0
129 -177 0
-28 -129 177 0
29 77 226 0
-29 77 -226 0
29 -77 -226 0
-29 -77 226 0
29 -178 0
130 -178 0
-29 -130 178 0
30 78 227 0
-30 78 -227 0
30 -78 -227 0
-30 -78 227 0
30 -179 0
131 -179 0
-30 -131 179 0
31 79 228 0
-31 79 -228 0
31 -79 -228 0
-31 -79 228 0
31 -180 0
132 -180 0
-31 -132 180 0
32 80 229 0
-32 80 -229 0
32 -80 -229 0
-32 -80 229 0
32 -181 0
133 -181 0
-32 -133 181 0
33 81 230 0
-33 81 -230 0
33 -81 -230 0
-33 -81 230 0
33 -182 0
134 -182 0
-33 -134 182 0
34 82 231 0
-34 82 -231 0
34 -82 -231 0
-34 -82 231 0
34 -183 0
135 -183 0
-34 -135 183 0
35 83 232 0
-35 83 -232 0
35 -83 -232 0
-35 -83 232 0
35 -184 0
136 -184 0
-35 -136 184 0
36 84 233 0
-36 84 -233 0
36 -84 -233 0
-36 -84 233 0
36 -185 0
137 -185 0
-36 -137 185 0
37 85 234 0
-37 85 -234 0
37 -85 -234 0
-37 -85 234 0
37 -186 0
138 -186 0
-37 -138 186 0
38 86 235 0
-38 86 -235 0
38 -86 -235 0
-38 -86 235 0
38 -187 0
139 -187 0
-38 -139 187 0
39 87 236 0
-39 87 -236 0
39 -87 -236 0
-39 -87 236 0
39 -188 0
140 -188 0
-39 -140 188 0
40 88 237 0
-40 88 -237 0
40 -88 -237 0
-40 -88 237 0
40 -189 0
141 -189 0
-40 -141 189 0
41 89 238 0
-41 89 -238 0
41 -89 -238 0
-41 -89 238 0
41 -190 0
142 -190 0
-41 -142 190 0
42 90 239 0
-42 90 -239 0
42 -90 -239 0
-42 -90 239 0
42 -191 0
143 -191 0
-42 -143 191 0
43 91 240 0
-43 91 -240 0
43 -91 -240 0
-43 -91 240 0
43 -192 0
144 -192 0
-43 -144 192 0
44 92 241 0
-44 92 -241 0
44 -92 -241 0
-44 -92 241 0
44 -193 0
145 -193 0
-44 -145 193 0
45 93 242 0
-45 93 -242 0
45 -93 -242 0
-45 -93 242 0
45 -194 0
146 -194 0
-45 -146 194 0
46 94 243 0
-46 94 -243 0
46 -94 -243 0
-46 -94 243 0
46 -195 0
147 -195 0
-46 -147 195 0
47 95 244 0
-47 95 -244 0
47 -95 -244 0
-47 -95 244 0
47 -196 0
148 -196 0
-47 -148 196 0
48 96 245 0
-48 96 -245 0
48 -96 -245 0
-48 -96 245 0
48 -197 0
149 -197 0
-48 -149 197 0
150 -246 0
199 -246 0
200 -246 0
201 -246 0
202 -246 0
203 -246 0
204 -246 0
205 -246 0
206 -246 0
207 -246 0
208 -246 0
209 -246 0
210 -246 0
211 -246 0
212 -246 0
213 -246 0
214 -246 0
215 -246 0
216 -246 0
217 -246 0
218 -246 0
219 -246 0
220 -246 0
221 -246 0
222 -246 0
223 -246 0
224 -246 0
225 -246 0
226 -246 0
227 -246 0
228 -246 0
229 -246 0
230 -246 0
231 -246 0
232 -246 0
233 -246 0
234 -246 0
235 -246 0
236 -246 0
237 -246 0
238 -246 0
239 -246 0
240 -246 0
241 -246 0
242 -246 0
243 -246 0
244 -246 0
245 -246 0
-150 -199 -200 -201 -202 -203 -204 -205 -206 -207 -208 -209 -210 -211 -212 -213 -214 -215 -216 -217 -218 -219 -220 -221 -222 -223 -224 -225 -226 -227 -228 -229 -230 -231 -232 -233 -234 -235 -236 -237 -238 -239 -240 -241 -242 -243 -244 -245 246 0
151 -247 0
200 -247 0
201 -247 0
202 -247 0
203 -247 0
204 -247 0
205 -247 0
206 -247 0
207 -247 0
208 -247 0
209 -247 0
210 -247 0
211 -247 0
212 -247 0
213 -247 0
214 -247 0
215 -247 0
216 -247 0
217 -247 0
218 -247 0
219 -247 0
220 -247 0
221 -247 0
222 -247 0
223 -247 0
224 -247 0
225 -247 0
226 -247 0
227 -247 0
228 -247 0
229 -247 0
230 -247 0
231 -247 0
232 -247 0
233 -247 0
234 -247 0
235 -247 0
236 -247 0
237 -247 0
238 -247 0
239 -247 0
240 -247 0
241 -247 0
242 -247 0
243 -247 0
244 -247 0
245 -247 0
-151 -200 -201 -202 -203 -204 -205 -206 -207 -208 -209 -210 -211 -212 -213 -214 -215 -216 -217 -218 -219 -220 -221 -222 -223 -224 -225 -226 -227 -228 -229 -230 -231 -232 -233 -234 -235 -236 -237 -238 -239 -240 -241 -242 -243 -244 -245 247 0
152 -248 0
201 -248 0
202 -248 0
203 -248 0
204 -248 0
205 -248 0
206 -248 0
207 -248 0
208 -248 0
209 -248 0
210 -248 0
211 -248 0
212 -248 0
213 -248 0
214 -248 0
215 -248 0
216 -248 0
217 -248 0
218 -248 0
219 -248 0
220 -248 0
221 -248 0
222 -248 0
223 -248 0
224 -248 0
225 -248 0
226 -248 0
227 -248 0
228 -248 0
229 -248 0
230 -248 0
231 -248 0
232 -248 0
233 -248 0
234 -248 0
235 -248 0
236 -248 0
237 -248 0
238 -248 0
239 -248 0
240 -248 0
241 -248 0
242 -248 0
243 -248 0
244 -248 0
245 -248 0
-152 -201 -202 -203 -204 -205 -206 -207 -208 -209 -210 -211 -212 -213 -214 -215 -216 -217 -218 -219 -220 -221 -222 -223 -224 -225 -226 -227 -228 -229 -230 -231 -232 -233 -234 -235 -236 -237 -238 -239 -240 -241 -242 -243 -244 -245 248 0
153 -249 0
202 -249 0
203 -249 0
204 -249 0
205 -249 0
206 -249 0
207 -249 0
208 -249 0
209 -249 0
210 -249 0
211 -249 0
212 -249 0
213 -249 0
214 -249 0
215 -249 0
216 -249 0
217 -249 0
218 -249 0
219 -249 0
220 -249 0
221 -249 0
222 -249 0
223 -249 0
224 -249 0
225 -249 0
226 -249 0
227 -249 0
228 -249 0
229 -249 0
230 -249 0
231 -249 0
232 -249 0
233 -249 0
234 -249 0
235 -249 0
236 -249 0
237 -249 0
238 -249 0
239 -249 0
240 -249 0
241 -249 0
242 -249 0
243 -249 0
244 -249 0
245 -249 0
-153 -202 -203 -204 -205 -206 -207 -208 -209 -210 -211 -212 -213 -214 -215 -216 -217 -218 -219 -220 -221 -222 -223 -224 -225 -226 -227 -228 -229 -230 -231 -232 -233 -234 -235 -236 -237 -238 -239 -240 -241 -242 -243 -244 -245 249 0
154 -250 0
203 -250 0
204 -250 0
205 -250 0
206 -250 0
207 -250 0
208 -250 0
209 -250 0
210 -250 0
211 -250 0
212 -250 0
213 -250 0
214 -250 0
215 -250 0
216 -250 0
217 -250 0
218 -250 0
219 -250 0
220 -250 0
221 -250 0
222 -250 0
223 -250 0
224 -250 0
225 -250 0
226 -250 0
227 -250 0
228 -250 0
229 -250 0
230 -250 0
231 -250 0
232 -250 0
233 -250 0
234 -250 0
235 -250 0
236 -250 0
237 -250 0
238 -250 0
239 -250 0
240 -250 0
241 -250 0
242 -250 0
243 -250 0
244 -250 0
245 -250 0
-154 -203 -204 -205 -206 -207 -208 -209 -210 -211 -212 -213 -214 -215 -216 -217 -218 -219 -220 -221 -222 -223 -224 -225 -226 -227 -228 -229 -230 -231 -232 -233 -234 -235 -236 -237 -238 -239 -240 -241 -242 -243 -244 -245 250 0
155 -251 0
204 -251 0
205 -251 0
206 -251 0
207 -251 0
208 -251 0
209 -251 0
210 -251 0
211 -251 0
212 -251 0
213 -251 0
214 -251 0
215 -251 0
216 -251 0
217 -251 0
218 -251 0
219 -251 0
220 -251 0
221 -251 0
222 -251 0
223 -251 0
224 -251 0
225 -251 0
226 -251 0
227 -251 0
228 -251 0
229 -251 0
230 -251 0
231 -251 0
232 -251 0
233 -251 0
234 -251 0
235 -251 0
236 -251 0
237 -251 0
238 -251 0
239 -251 0
240 -251 0
241 -251 0
242 -251 0
243 -251 0
244 -251 0
245 -251 0
-155 -204 -205 -206 -207 -208 -209 -210 -211 -212 -213 -214 -215 -216 -217 -218 -219 -220 -221 -222 -223 -224 -225 -226 -227 -228 -229 -230 -231 -232 -233 -234 -235 -236 -237 -238 -239 -240 -241 -242 -243 -244 -245 251 0
156 -252 0
205 -252 0
206 -252 0
207 -252 0
208 -252 0
209 -252 0
210 -252 0
211 -252 0
212 -252 0
213 -252 0
214 -252 0
215 -252 0
216 -252 0
217 -252 0
218 -252 0
219 -252 0
220 -252 0
221 -252 0
222 -252 0
223 -252 0
224 -252 0
225 -252 0
226 -252 0
227 -252 0
228 -252 0
229 -252 0
230 -252 0
231 -252 0
232 -252 0
233 -252 0
234 -252 0
235 -252 0
236 -252 0
237 -252 0
238 -252 0
239 -252 0
240 -252 0
241 -252 0
242 -252 0
243 -252 0
244 -252 0
245 -252 0
-156 -205 -206 -207 -208 -209 -210 -211 -212 -213 -214 -215 -216 -217 -218 -219 -220 -221 -222 -223 -224 -225 -226 -227 -228 -229 -230 -231 -232 -233 -234 -235 -236 -237 -238 -239 -240 -241 -242 -243 -244 -245 252 0
157 -253 0
206 -253 0
207 -253 0
208 -253 0
209 -253 0
210 -253 0
211 -253 0
212 -253 0
213 -253 0
214 -253 0
215 -253 0
216 -253 0
217 -253 0
218 -253 0
219 -253 0
220 -253 0
221 -253 0
222 -253 0
223 -253 0
224 -253 0
225 -253 0
226 -253 0
227 -253 0
228 -253 0
229 -253 0
230 -253 0
231 -253 0
232 -253 0
233 -253 0
234 -253 0
235 -253 0
236 -253 0
237 -253 0
238 -253 0
239 -253 0
240 -253 0
241 -253 0
242 -253 0
243 -253 0
244 -253 0
245 -253 0
-157 -206 -207 -208 -209 -210 -211 -212 -213 -214 -215 -216 -217 -218 -219 -220 -221 -222 -223 -224 -225 -226 -227 -228 -229 -230 -231 -232 -233 -234 -235 -236 -237 -238 -239 -240 -241 -242 -243 -244 -245 253 0
158 -254 0
207 -254 0
208 -254 0
209 -254 0
210 -254 0
211 -254 0
212 -254 0
213 -254 0
214 -254 0
215 -254 0
216 -254 0
217 -254 0
218 -254 0
219 -254 0
220 -254 0
221 -254 0
222 -254 0
223 -254 0
224 -254 0
225 -254 0
226 -254 0
227 -254 0
228 -254 0
229 -254 0
230 -254 0
231 -254 0
232 -254 0
233 -254 0
234 -254 0
235 -254 0
236 -254 0
237 -254 0
238 -254 0
239 -254 0
240 -254 0
241 -254 0
242 -254 0
243 -254 0
244 -254 0
245 -254 0
-158 -207 -208 -209 -210 -211 -212 -213 -214 -215 -216 -217 -218 -219 -220 -221 -222 -223 -224 -225 -226 -227 -228 -229 -230 -231 -232 -233 -234 -235 -236 -237 -238 -239 -240 -241 -242 -243 -244 -245 254 0
159 -255 0
208 -255 0
209 -255 0
210 -255 0
211 -255 0
212 -255 0
213 -255 0
214 -255 0
215 -255 0
216 -255 0
217 -255 0
218 -255 0
219 -255 0
220 -255 0
221 -255 0
222 -255 0
223 -255 0
224 -255 0
225 -255 0
226 -255 0
227 -255 0
228 -255 0
229 -255 0
230 -255 0
231 -255 0
232 -255 0
233 -255 0
234 -255 0
235 -255 0
236 -255 0
237 -255 0
238 -255 0
239 -255 0
240 -255 0
241 -255 0
242 -255 0
243 -255 0
244 -255 0
245 -255 0
-159 -208 -209 -210 -211 -212 -213 -214 -215 -216 -217 -218 -219 -220 -221 -222 -223 -224 -225 -226 -227 -228 -229 -230 -231 -232 -233 -234 -235 -236 -237 -238 -239 -240 -241 -242 -243 -244 -245 255 0
160 -256 0
209 -256 0
210 -256 0
211 -256 0
212 -256 0
213 -256 0
214 -256 0
215 -256 0
216 -256 0
217 -256 0
218 -256 0
219 -256 0
220 -256 0
221 -256 0
222 -256 0
223 -256 0
224 -256 0
225 -256 0
226 -256 0
227 -256 0
228 -256 0
229 -256 0
230 -256 0
231 -256 0
232 -256 0
233 -256 0
234 -256 0
235 -256 0
236 -256 0
237 -256 0
238 -256 0
239 -256 0
240 -256 0
241 -256 0
242 -256 0
243 -256 0
244 -256 0
245 -256 0
-160 -209 -210 -211 -212 -213 -214 -215 -216 -217 -218 -219 -220 -221 -222 -223 -224 -225 -226 -227 -228 -229 -230 -231 -232 -233 -234 -235 -236 -237 -238 -239 -240 -241 -242 -243 -244 -245 256 0
161 -257 0
210 -257 0
211 -257 0
212 -257 0
213 -257 0
214 -257 0
215 -257 0
216 -257 0
217 -257 0
218 -257 0
219 -257 0
220 -257 0
221 -257 0
222 -257 0
223 -257 0
224 -257 0
225 -257 0
226 -257 0
227 -257 0
228 -257 0
229 -257 0
230 -257 0
231 -257 0
232 -257 0
233 -257 0
234 -257 0
235 -257 0
236 -257 0
237 -257 0
238 -257 0
239 -257 0
240 -257 0
241 -257 0
242 -257 0
243 -257 0
244 -257 0
245 -257 0
-161 -210 -211 -212 -213 -214 -215 -216 -217 -218 -219 -220 -221 -222 -223 -224 -225 -226 -227 -228 -229 -230 -231 -232 -233 -234 -235 -236 -237 -238 -239 -240 -241 -242 -243 -244 -245 257 0
162 -258 0
211 -258 0
212 -258 0
213 -258 0
214 -258 0
215 -258 0
216 -258 0
217 -258 0
218 -258 0
219 -258 0
220 -258 0
221 -258 0
222 -258 0
223 -258 0
224 -258 0
225 -258 0
226 -258 0
227 -258 0
228 -258 0
229 -258 0
230 -258 0
231 -258 0
232 -258 0
233 -258 0
234 -258 0
235 -258 0
236 -258 0
237 -258 0
238 -258 0
239 -258 0
240 -258 0
241 -258 0
242 -258 0
243 -258 0
244 -258 0
245 -258 0
-162 -211 -212 -213 -214 -215 -216 -217 -218 -219 -220 -221 -222 -223 -224 -225 -226 -227 -228 -229 -230 -231 -232 -233 -234 -235 -236 -237 -238 -239 -240 -241 -242 -243 -244 -245 258 0
163 -259 0
212 -259 0
213 -259 0
214 -259 0
215 -259 0
216 -259 0
217 -259 0
218 -259 0
219 -259 0
220 -259 0
221 -259 0
222 -259 0
223 -259 0
224 -259 0
225 -259 0
226 -259 0
227 -259 0
228 -259 0
229 -259 0
230 -259 0
231 -259 0
232 -259 0
233 -259 0
234 -259 0
235 -259 0
236 -259 0
237 -259 0
238 -259 0
239 -259 0
240 -259 0
241 -259 0
242 -259 0
243 -259 0
244 -259 0
245 -259 0
-163 -212 -213 -214 -215 -216 -217 -218 -219 -220 -221 -222 -223 -224 -225 -226 -227 -228 -229 -230 -231 -232 -233 -234 -235 -236 -237 -238 -239 -240 -241 -242 -243 -244 -245 259 0
164 -260 0
213 -260 0
214 -260 0
215 -260 0
216 -260 0
217 -260 0
218 -260 0
219 -260 0
220 -260 0
221 -260 0
222 -260 0
223 -260 0
224 -260 0
225 -260 0
226 -260 0
227 -260 0
228 -260 0
229 -260 0
230 -260 0
231 -260 0
232 -260 0
233 -260 0
234 -260 0
235 -260 0
236 -260 0
237 -260 0
238 -260 0
239 -260 0
240 -260 0
241 -260 0
242 -260 0
243 -260 0
244 -260 0
245 -260 0
-164 -213 -214 -215 -216 -217 -218 -219 -220 -221 -222 -223 -224 -225 -226 -227 -228 -229 -230 -231 -232 -233 -234 -235 -236 -237 -238 -239 -240 -241 -242 -243 -244 -245 260 0
165 -261 0
214 -261 0
215 -261 0
216 -261 0
217 -261 0
218 -261 0
219 -261 0
220 -261 0
221 -261 0
222 -261 0
223 -261 0
224 -261 0
225 -261 0
226 -261 0
227 -261 0
228 -261 0
229 -261 0
230 -261 0
231 -261 0
232 -261 0
233 -261 0
234 -261 0
235 -261 0
236 -261 0
237 -261 0
238 -261 0
239 -261 0
240 -261 0
241 -261 0
242 -261 0
243 -261 0
244 -261 0
245 -261 0
-165 -214 -215 -216 -217 -218 -219 -220 -221 -222 -223 -224 -225 -226 -227 -228 -229 -230 -231 -232 -233 -234 -235 -236 -237 -238 -239 -240 -241 -242 -243 -244 -245 261 0
166 -262 0
215 -262 0
216 -262 0
217 -262 0
218 -262 0
219 -262 0
220 -262 0
221 -262 0
222 -262 0
223 -262 0
224 -262 0
225 -262 0
226 -262 0
227 -262 0
228 -262 0
229 -262 0
230 -262 0
231 -262 0
232 -262 0
233 -262 0
234 -262 0
235 -262 0
236 -262 0
237 -262 0
238 -262 0
239 -262 0
240 -262 0
241 -262 0
242 -262 0
243 -262 0
244 -262 0
245 -262 0
-166 -215 -216 -217 -218 -219 -220 -221 -222 -223 -224 -225 -226 -227 -228 -229 -230 -231 -232 -233 -234 -235 -236 -237 -238 -239 -240 -241 -242 -243 -244 -245 262 0
167 -263 0
216 -263 0
217 -263 0
218 -263 0
219 -263 0
220 -263 0
221 -263 0
222 -263 0
223 -263 0
224 -263 0
225 -263 0
226 -263 0
227 -263 0
228 -263 0
229 -263 0
230 -263 0
231 -263 0
232 -263 0
233 -263 0
234 -263 0
235 -263 0
236 -263 0
237 -263 0
238 -263 0
239 -263 0
240 -263 0
241 -263 0
242 -263 0
243 -263 0
244 -263 0
245 -263 0
-167 -216 -217 -218 -219 -220 -221 -222 -223 -224 -225 -226 -227 -228 -229 -230 -231 -232 -233 -234 -235 -236 -237 -238 -239 -240 -241 -242 -243 -244 -245 263 0
168 -264 0
217 -264 0
218 -264 0
219 -264 0
220 -264 0
221 -264 0
222 -264 0
223 -264 0
224 -264 0
225 -264 0
226 -264 0
227 -264 0
228 -264 0
229 -264 0
230 -264 0
231 -264 0
232 -264 0
233 -264 0
234 -264 0
235 -264 0
236 -264 0
237 -264 0
238 -264 0
239 -264 0
240 -264 0
241 -264 0
242 -264 0
243 -264 0
244 -264 0
245 -264 0
-168 -217 -218 -219 -220 -221 -222 -223 -224 -225 -226 -227 -228 -229 -230 -231 -232 -233 -234 -235 -236 -237 -238 -239 -240 -241 -242 -243 -244 -245 264 0
169 -265 0
218 -265 0
219 -265 0
220 -265 0
221 -265 0
222 -265 0
223 -265 0
224 -265 0
225 -265 0
226 -265 0
227 -265 0
228 -265 0
229 -265 0
230 -265 0
231 -265 0
232 -265 0
233 -265 0
234 -265 0
235 -265 0
236 -265 0
237 -265 0
238 -265 0
239 -265 0
240 -265 0
241 -265 0
242 -265 0
243 -265 0
244 -265 0
245 -265 0
-169 -218 -219 -220 -221 -222 -223 -224 -225 -226 -227 -228 -229 -230 -231 -232 -233 -234 -235 -236 -237 -238 -239 -240 -241 -242 -243 -244 -245 265 0
170 -266 0
219 -266 0
220 -266 0
221 -266 0
222 -266 0
223 -266 0
224 -266 0
225 -266 0
226 -266 0
227 -266 0
228 -266 0
229 -266 0
230 -266 0
231 -266 0
232 -266 0
233 -266 0
234 -266 0
235 -266 0
236 -266 0
237 -266 0
238 -266 0
239 -266 0
240 -266 0
241 -266 0
242 -266 0
243 -266 0
244 -266 0
245 -266 0
-170 -219 -220 -221 -222 -223 -224 -225 -226 -227 -228 -229 -230 -231 -232 -233 -234 -235 -236 -237 -238 -239 -240 -241 -242 -243 -244 -245 266 0
171 -267 0
220 -267 0
221 -267 0
222 -267 0
223 -267 0
224 -267 0
225 -267 0
226 -267 0
227 -267 0
228 -267 0
229 -267 0
230 -267 0
231 -267 0
232 -267 0
233 -267 0
234 -267 0
235 -267 0
236 -267 0
237 -267 0
238 -267 0
239 -267 0
240 -267 0
241 -267 0
242 -267 0
243 -267 0
244 -267 0
245 -267 0
-171 -220 -221 -222 -223 -224 -225 -226 -227 -228 -229 -230 -231 -232 -233 -234 -235 -236 -237 -238 -239 -240 -241 -242 -243 -244 -245 267 0
172 -268 0
221 -268 0
222 -268 0
223 -268 0
224 -268 0
225 -268 0
226 -268 0
227 -268 0
228 -268 0
229 -268 0
230 -268 0
231 -268 0
232 -268 0
233 -268 0
234 -268 0
235 -268 0
236 -268 0
237 -268 0
238 -268 0
239 -268 0
240 -268 0
241 -268 0
242 -268 0
243 -268 0
244 -268 0
245 -268 0
-172 -221 -222 -223 -224 -225 -226 -227 -228 -229 -230 -231 -232 -233 -234 -235 -236 -237 -238 -239 -240 -241 -242 -243 -244 -245 268 0
173 -269 0
222 -269 0
223 -269 0
224 -269 0
225 -269 0
226 -269 0
227 -269 0
228 -269 0
229 -269 0
230 -269 0
231 -269 0
232 -269 0
233 -269 0
234 -269 0
235 -269 0
236 -269 0
237 -269 0
238 -269 0
239 -269 0
240 -269 0
241 -269 0
242 -269 0
243 -269 0
244 -269 0
245 -269 0
-173 -222 -223 -224 -225 -226 -227 -228 -229 -230 -231 -232 -233 -234 -235 -236 -237 -238 -239 -240 -241 -242 -243 -244 -245 269 0
174 -270 0
223 -270 0
224 -270 0
225 -270 0
226 -270 0
227 -270 0
228 -270 0
229 -270 0
230 -270 0
231 -270 0
232 -270 0
233 -270 0
234 -270 0
235 -270 0
236 -270 0
237 -270 0
238 -270 0
239 -270 0
240 -270 0
241 -270 0
242 -270 0
243 -270 0
244 -270 0
245 -270 0
-174 -223 -224 -225 -226 -227 -228 -229 -230 -231 -232 -233 -234 -235 -236 -237 -238 -239 -240 -241 -242 -243 -244 -245 270 0
175 -271 0
224 -271 0
225 -271 0
226 -271 0
227 -271 0
228 -271 0
229 -271 0
230 -271 0
231 -271 0
232 -271 0
233 -271 0
234 -271 0
235 -271 0
236 -271 0
237 -271 0
238 -271 0
239 -271 0
240 -271 0
241 -271 0
242 -271 0
243 -271 0
244 -271 0
245 -271 0
-175 -224 -225 -226 -227 -228 -229 -230 -231 -232 -233 -234 -235 -236 -237 -238 -239 -240 -241 -242 -243 -244 -245 271 0
176 -272 0
225 -272 0
226 -272 0
227 -272 0
228 -272 0
229 -272 0
230 -272 0
231 -272 0
232 -272 0
233 -272 0
234 -272 0
235 -272 0
236 -272 0
237 -272 0
238 -272 0
239 -272 0
240 -272 0
241 -272 0
242 -272 0
243 -272 0
244 -272 0
245 -272 0
-176 -225 -226 -227 -228 -229 -230 -231 -232 -233 -234 -235 -236 -237 -238 -239 -240 -241 -242 -243 -244 -245 272 0
177 -273 0
226 -273 0
227 -273 0
228 -273 0
229 -273 0
230 -273 0
231 -273 0
232 -273 0
233 -273 0
234 -273 0
235 -273 0
236 -273 0
237 -273 0
238 -273 0
239 -273 0
240 -273 0
241 -273 0
242 -273 0
243 -273 0
244 -273 0
245 -273 0
-177 -226 -227 -228 -229 -230 -231 -232 -233 -234 -235 -236 -237 -238 -239 -240 -241 -242 -243 -244 -245 273 0
178 -274 0
227 -274 0
228 -274 0
229 -274 0
230 -274 0
231 -274 0
232 -274 0
233 -274 0
234 -274 0
235 -274 0
236 -274 0
237 -274 0
238 -274 0
239 -274 0
240 -274 0
241 -274 0
242 -274 0
243 -274 0
244 -274 0
245 -274 0
-178 -227 -228 -229 -230 -231 -232 -233 -234 -235 -236 -237 -238 -239 -240 -241 -242 -243 -244 -245 274 0
179 -275 0
228 -275 0
229 -275 0
230 -275 0
231 -275 0
232 -275 0
233 -275 0
234 -275 0
235 -275 0
236 -275 0
237 -275 0
238 -275 0
239 -275 0
240 -275 0
241 -275 0
242 -275 0
243 -275 0
244 -275 0
245 -275 0
-179 -228 -229 -230 -231 -232 -233 -234 -235 -236 -237 -238 -239 -240 -241 -242 -243 -244 -245 275 0
180 -276 0
229 -276 0
230 -276 0
231 -276 0
232 -276 0
233 -276 0
234 -276 0
235 -276 0
236 -276 0
237 -276 0
238 -276 0
239 -276 0
240 -276 0
241 -276 0
242 -276 0
243 -276 0
244 -276 0
245 -276 0
-180 -229 -230 -231 -232 -233 -234 -235 -236 -237 -238 -239 -240 -241 -242 -243 -244 -245 276 0
181 -277 0
230 -277 0
231 -277 0
232 -277 0
233 -277 0
234 -277 0
235 -277 0
236 -277 0
237 -277 0
238 -277 0
239 -277 0
240 -277 0
241 -277 0
242 -277 0
243 -277 0
244 -277 0
245 -277 0
-181 -230 -231 -232 -233 -234 -235 -236 -237 -238 -239 -240 -241 -242 -243 -244 -245 277 0
182 -278 0
231 -278 0
232 -278 0
233 -278 0
234 -278 0
235 -278 0
236 -278 0
237 -278 0
238 -278 0
239 -278 0
240 -278 0
241 -278 0
242 -278 0
243 -278 0
244 -278 0
245 -278 0
-182 -231 -232 -233 -234 -235 -236 -237 -238 -239 -240 -241 -242 -243 -244 -245 278 0
183 -279 0
232 -279 0
233 -279 0
234 -279 0
235 -279 0
236 -279 0
237 -279 0
238 -279 0
239 -279 0
240 -279 0
241 -279 0
242 -279 0
243 -279 0
244 -279 0
245 -279 0
-183 -232 -233 -234 -235 -236 -237 -238 -239 -240 -241 -242 -243 -244 -245 279 0
184 -280 0
233 -280 0
234 -280 0
235 -280 0
236 -280 0
237 -280 0
238 -280 0
239 -280 0
240 -280 0
241 -280 0
242 -280 0
243 -280 0
244 -280 0
245 -280 0
-184 -233 -234 -235 -236 -237 -238 -239 -240 -241 -242 -243 -244 -245 280 0
185 -281 0
234 -281 0
235 -281 0
236 -281 0
237 -281 0
238 -281 0
239 -281 0
240 -281 0
241 -281 0
242 -281 0
243 -281 0
244 -281 0
245 -281 0
-185 -234 -235 -236 -237 -238 -239 -240 -241 -242 -243 -244 -245 281 0
186 -282 0
235 -282 0
236 -282 0
237 -282 0
238 -282 0
239 -282 0
240 -282 0
241 -282 0
242 -282 0
243 -282 0
244 -282 0
245 -282 0
-186 -235 -236 -237 -238 -239 -240 -241 -242 -243 -244 -245 282 0
187 -283 0
236 -283 0
237 -283 0
238 -283 0
239 -283 0
240 -283 0
241 -283 0
242 -283 0
243 -283 0
244 -283 0
245 -283 0
-187 -236 -237 -238 -239 -240 -241 -242 -243 -244 -245 283 0
188 -284 0
237 -284 0
238 -284 0
239 -284 0
240 -284 0
241 -284 0
242 -284 0
243 -284 0
244 -284 0
245 -284 0
-188 -237 -238 -239 -240 -241 -242 -243 -244 -245 284 0
189 -285 0
238 -285 0
239 -285 0
240 -285 0
241 -285 0
242 -285 0
243 -285 0
244 -285 0
245 -285 0
-189 -238 -239 -240 -241 -242 -243 -244 -245 285 0
190 -286 0
239 -286 0
240 -286 0
241 -286 0
242 -286 0
243 -286 0
244 -286 0
245 -286 0
-190 -239 -240 -241 -242 -243 -244 -245 286 0
191 -287 0
240 -287 0
241 -287 0
242 -287 0
243 -287 0
244 -287 0
245 -287 0
-191 -240 -241 -242 -243 -244 -245 287 0
192 -288 0
241 -288 0
242 -288 0
243 -288 0
244 -288 0
245 -288 0
-192 -241 -242 -243 -244 -245 288 0
193 -289 0
242 -289 0
243 -289 0
244 -289 0
245 -289 0
-193 -242 -243 -244 -245 289 0
194 -290 0
243 -290 0
244 -290 0
245 -290 0
-194 -243 -244 -245 290 0
195 -291 0
244 -291 0
245 -291 0
-195 -244 -245 291 0
196 -292 0
245 -292 0
-196 -245 292 0
197 -293 0
-197 293 0
-246 97 0
-247 97 0
-248 97 0
-249 97 0
-250 97 0
-251 97 0
-252 97 0
-253 97 0
-254 97 0
-255 97 0
-256 97 0
-257 97 0
-258 97 0
-259 97 0
-260 97 0
-261 97 0
-262 97 0
-263 97 0
-264 97 0
-265 97 0
-266 97 0
-267 97 0
-268 97 0
-269 97 0
-270 97 0
-271 97 0
-272 97 0
-273 97 0
-274 97 0
-275 97 0
-276 97 0
-277 97 0
-278 97 0
-279 97 0
-280 97 0
-281 97 0
-282 97 0
-283 97 0
-284 97 0
-285 97 0
-286 97 0
-287 97 0
-288 97 0
-289 97 0
-290 97 0
-291 97 0
-292 97 0
-293 97 0
246 247 248 249 250 251 252 253 254 255 256 257 258 259 260 261 262 263 264 265 266 267 268 269 270 271 272 273 274 275 276 277 278 279 280 281 282 283 284 285 286 287 288 289 290 291 292 293 -97 0
198 -98 0
199 -98 0
200 -98 0
201 -98 0
202 -98 0
203 -98 0
204 -98 0
205 -98 0
206 -98 0
207 -98 0
208 -98 0
209 -98 0
210 -98 0
211 -98 0
212 -98 0
213 -98 0
214 -98 0
215 -98 0
216 -98 0
217 -98 0
218 -98 0
219 -98 0
220 -98 0
221 -98 0
222 -98 0
223 -98 0
224 -98 0
225 -98 0
226 -98 0
227 -98 0
228 -98 0
229 -98 0
230 -98 0
231 -98 0
232 -98 0
233 -98 0
234 -98 0
235 -98 0
236 -98 0
237 -98 0
238 -98 0
239 -98 0
240 -98 0
241 -98 0
242 -98 0
243 -98 0
244 -98 0
245 -98 0
-198 -199 -200 -201 -202 -203 -204 -205 -206 -207 -208 -209 -210 -211 -212 -213 -214 -215 -216 -217 -218 -219 -220 -221 -222 -223 -224 -225 -226 -227 -228 -229 -230 -231 -232 -233 -234 -235 -236 -237 -238 -239 -240 -241 -242 -243 -244 -245 98 0
-97 -99 0
-98 -99 0
97 98 99 0
